(set-info :source |printed by MathSAT|)
(declare-fun ldv_module_refcounter () (_ BitVec 32))

*:
(assert (let ((.def_24356 (= ldv_module_refcounter (_ bv1 32)))).def_24356))
(assert (let ((.def_24361 (bvslt (_ bv1 32) ldv_module_refcounter))).def_24361))

